# 3d Lennard-Jones 
units		lj
atom_style	atomic
atom_modify	map array
boundary	p p p

lattice		fcc ${rho}
region		box block 0 8 0 8 0 8
create_box	1 box
create_atoms	1 box
mass		1 1.0


velocity	all create ${T} 87287 loop geom

pair_style	lj/cut 2.5
pair_coeff	1 1 1.0 1.0 2.5

timestep 0.005

variable tdamp equal 0.5
variable pdamp equal   1.0

variable dens equal density

fix		1 all npt temp ${T} ${T} ${tdamp} iso ${P} ${P} ${pdamp}
thermo 1000


fix 2 all ave/time 100 5 1000 v_dens ave window 20 file isobars/rho-P${P}-T${T}.txt

timestep 0.01

dump MYDUMP all atom 2000 dump-T${T}-P-${P}.atom
dump_modify MYDUMP sort id


run		20000

